ALGO = D
AMIN = 0.01
BMIX = 3.0
EDIFF = 1e-05
ENCUT = 400
GGA = Pe
ICHARG = 2
ISPIN = 2
ISTART = 0
KPAR = 6
LDAU = True
LDAUJ = 0.0 0.0
LDAUL = 1 1
LDAUU = 0.0 0.0
LMAXMIX = 4
LORBIT = 11
LSORBIT = True
MAGMOM = 0.0 0.0 0.0 0.0 0.0 0.0
NBANDS = 21
NCORE = 3
PREC = N
SAXIS = 0.0000 0.0000 1.0000
SIGMA = 0.05
