ALGO = D
ENCUT = 450
GGA = Pe
ICHARG = 2
ISMEAR = 0
ISPIN = 2
ISTART = 0
KPAR = 6
LDAU = True
LDAUJ = 0.0 0.0
LDAUL = 1 1
LDAUU = 0.0 0.0
LMAXMIX = 2
LORBIT = 11
MAGMOM = 6*0.0
NBANDS = 54
NCORE = 3
PREC = N
SIGMA = 0.05
