ALGO = D
ENCUT = 450
GGA = Pe
ICHARG = 11
ISMEAR = 0
ISPIN = 2
KPAR = 6
LCHARG = False
LDAU = True
LDAUJ = 0.0
LDAUL = 1
LDAUU = -2.3093049216996455
LMAXMIX = 2
LORBIT = 11
LWAVE = False
MAGMOM = 6*0.0
NBANDS = 54
NCORE = 3
PREC = N
SIGMA = 0.05
