BayesOpt4dftu: Kpoints from user input and scf K-grid
116
Reciprocal
0.0 0.0 0.0 1 None
0.16666666666667 0.0 0.0 8 None
0.33333333333333 0.0 0.0 8 None
0.5 0.0 0.0 4 None
0.16666666666667 0.16666666666667 0.0 6 None
0.33333333333333 0.16666666666667 0.0 24 None
0.5 0.16666666666667 0.0 24 None
-0.33333333333333 0.16666666666667 0.0 24 None
-0.16666666666667 0.16666666666667 0.0 12 None
0.33333333333333 0.33333333333333 0.0 6 None
0.5 0.33333333333333 0.0 24 None
-0.33333333333333 0.33333333333333 0.0 12 None
0.5 0.5 0.0 3 None
0.5 0.33333333333333 0.16666666666667 24 None
-0.33333333333333 0.33333333333333 0.16666666666667 24 None
-0.33333333333333 0.5 0.16666666666667 12 None
0.5 0.5 0.5 0 L
0.4897959183673469 0.4897959183673469 0.4897959183673469 0 None
0.47959183673469385 0.47959183673469385 0.47959183673469385 0 None
0.46938775510204084 0.46938775510204084 0.46938775510204084 0 None
0.45918367346938777 0.45918367346938777 0.45918367346938777 0 None
0.4489795918367347 0.4489795918367347 0.4489795918367347 0 None
0.4387755102040816 0.4387755102040816 0.4387755102040816 0 None
0.4285714285714286 0.4285714285714286 0.4285714285714286 0 None
0.41836734693877553 0.41836734693877553 0.41836734693877553 0 None
0.40816326530612246 0.40816326530612246 0.40816326530612246 0 None
0.3979591836734694 0.3979591836734694 0.3979591836734694 0 None
0.3877551020408163 0.3877551020408163 0.3877551020408163 0 None
0.37755102040816324 0.37755102040816324 0.37755102040816324 0 None
0.3673469387755102 0.3673469387755102 0.3673469387755102 0 None
0.35714285714285715 0.35714285714285715 0.35714285714285715 0 None
0.34693877551020413 0.34693877551020413 0.34693877551020413 0 None
0.33673469387755106 0.33673469387755106 0.33673469387755106 0 None
0.326530612244898 0.326530612244898 0.326530612244898 0 None
0.3163265306122449 0.3163265306122449 0.3163265306122449 0 None
0.30612244897959184 0.30612244897959184 0.30612244897959184 0 None
0.29591836734693877 0.29591836734693877 0.29591836734693877 0 None
0.2857142857142857 0.2857142857142857 0.2857142857142857 0 None
0.2755102040816327 0.2755102040816327 0.2755102040816327 0 None
0.2653061224489796 0.2653061224489796 0.2653061224489796 0 None
0.25510204081632654 0.25510204081632654 0.25510204081632654 0 None
0.24489795918367346 0.24489795918367346 0.24489795918367346 0 None
0.23469387755102045 0.23469387755102045 0.23469387755102045 0 None
0.22448979591836737 0.22448979591836737 0.22448979591836737 0 None
0.2142857142857143 0.2142857142857143 0.2142857142857143 0 None
0.20408163265306123 0.20408163265306123 0.20408163265306123 0 None
0.1938775510204082 0.1938775510204082 0.1938775510204082 0 None
0.18367346938775514 0.18367346938775514 0.18367346938775514 0 None
0.17346938775510207 0.17346938775510207 0.17346938775510207 0 None
0.163265306122449 0.163265306122449 0.163265306122449 0 None
0.15306122448979592 0.15306122448979592 0.15306122448979592 0 None
0.1428571428571429 0.1428571428571429 0.1428571428571429 0 None
0.13265306122448983 0.13265306122448983 0.13265306122448983 0 None
0.12244897959183676 0.12244897959183676 0.12244897959183676 0 None
0.11224489795918369 0.11224489795918369 0.11224489795918369 0 None
0.10204081632653067 0.10204081632653067 0.10204081632653067 0 None
0.0918367346938776 0.0918367346938776 0.0918367346938776 0 None
0.08163265306122452 0.08163265306122452 0.08163265306122452 0 None
0.07142857142857145 0.07142857142857145 0.07142857142857145 0 None
0.06122448979591838 0.06122448979591838 0.06122448979591838 0 None
0.05102040816326536 0.05102040816326536 0.05102040816326536 0 None
0.04081632653061229 0.04081632653061229 0.04081632653061229 0 None
0.030612244897959218 0.030612244897959218 0.030612244897959218 0 None
0.020408163265306145 0.020408163265306145 0.020408163265306145 0 None
0.010204081632653073 0.010204081632653073 0.010204081632653073 0 None
0.0 0.0 0.0 0 G
0.0 0.0 0.0 0 G
0.01020408163265306 0.0 0.01020408163265306 0 None
0.02040816326530612 0.0 0.02040816326530612 0 None
0.030612244897959183 0.0 0.030612244897959183 0 None
0.04081632653061224 0.0 0.04081632653061224 0 None
0.0510204081632653 0.0 0.0510204081632653 0 None
0.061224489795918366 0.0 0.061224489795918366 0 None
0.07142857142857142 0.0 0.07142857142857142 0 None
0.08163265306122448 0.0 0.08163265306122448 0 None
0.09183673469387754 0.0 0.09183673469387754 0 None
0.1020408163265306 0.0 0.1020408163265306 0 None
0.11224489795918366 0.0 0.11224489795918366 0 None
0.12244897959183673 0.0 0.12244897959183673 0 None
0.13265306122448978 0.0 0.13265306122448978 0 None
0.14285714285714285 0.0 0.14285714285714285 0 None
0.1530612244897959 0.0 0.1530612244897959 0 None
0.16326530612244897 0.0 0.16326530612244897 0 None
0.17346938775510204 0.0 0.17346938775510204 0 None
0.18367346938775508 0.0 0.18367346938775508 0 None
0.19387755102040816 0.0 0.19387755102040816 0 None
0.2040816326530612 0.0 0.2040816326530612 0 None
0.21428571428571427 0.0 0.21428571428571427 0 None
0.22448979591836732 0.0 0.22448979591836732 0 None
0.2346938775510204 0.0 0.2346938775510204 0 None
0.24489795918367346 0.0 0.24489795918367346 0 None
0.25510204081632654 0.0 0.25510204081632654 0 None
0.26530612244897955 0.0 0.26530612244897955 0 None
0.2755102040816326 0.0 0.2755102040816326 0 None
0.2857142857142857 0.0 0.2857142857142857 0 None
0.29591836734693877 0.0 0.29591836734693877 0 None
0.3061224489795918 0.0 0.3061224489795918 0 None
0.31632653061224486 0.0 0.31632653061224486 0 None
0.32653061224489793 0.0 0.32653061224489793 0 None
0.336734693877551 0.0 0.336734693877551 0 None
0.3469387755102041 0.0 0.3469387755102041 0 None
0.3571428571428571 0.0 0.3571428571428571 0 None
0.36734693877551017 0.0 0.36734693877551017 0 None
0.37755102040816324 0.0 0.37755102040816324 0 None
0.3877551020408163 0.0 0.3877551020408163 0 None
0.39795918367346933 0.0 0.39795918367346933 0 None
0.4081632653061224 0.0 0.4081632653061224 0 None
0.4183673469387755 0.0 0.4183673469387755 0 None
0.42857142857142855 0.0 0.42857142857142855 0 None
0.4387755102040816 0.0 0.4387755102040816 0 None
0.44897959183673464 0.0 0.44897959183673464 0 None
0.4591836734693877 0.0 0.4591836734693877 0 None
0.4693877551020408 0.0 0.4693877551020408 0 None
0.47959183673469385 0.0 0.47959183673469385 0 None
0.4897959183673469 0.0 0.4897959183673469 0 None
0.5 0.0 0.5 0 X
